#######################
Slurm job id: 17497813_207
Running on machine: p16
Running cmd: /nfs/shared/static-builds/gurobi1202 SOFTMEMLIMIT=125 MIPFocus=2 Presolve=1 TimeLimit=500 seed=16 /nfs/models/miplib2010/k16x240.mps.bz2
#######################
Set parameter TimeLimit to value 500
Set parameter SoftMemLimit to value 125
Set parameter MIPFocus to value 2
Set parameter LogFile to value 1202-MIPFocus2-Presolve1-TimeLimit500-k16x240-6.log
Set parameter Presolve to value 1
Set parameter Seed to value 16
Using license file /opt/gurobi/gurobi.lic

Gurobi Optimizer version 12.0.2 build v12.0.2rc0 (linux64 - "Ubuntu 22.04.4 LTS")
Copyright (c) 2025, Gurobi Optimization, LLC

Read MPS format model from file /nfs/models/miplib2010/k16x240.mps.bz2
Reading time = 0.00 seconds
k16x240: 256 rows, 480 columns, 960 nonzeros

Using Gurobi shared library /nfs/shared/static-builds/gurobi1202

CPU model: Intel(R) Xeon(R) E-2388G CPU @ 3.20GHz, instruction set [SSE2|AVX|AVX2|AVX512]
Thread count: 8 physical cores, 16 logical processors, using up to 16 threads

Non-default parameters:
TimeLimit  500
SoftMemLimit  125
MIPFocus  2
Presolve  1
Seed  16

Optimize a model with 256 rows, 480 columns and 960 nonzeros
Model fingerprint: 0x4e80885f
Variable types: 240 continuous, 240 integer (240 binary)
Coefficient statistics:
  Matrix range     [1e+00, 1e+03]
  Objective range  [1e+00, 1e+03]
  Bounds range     [1e+00, 1e+03]
  RHS range        [4e+00, 4e+02]
Found heuristic solution: objective 20319.000000
Presolve time: 0.00s
Presolved: 256 rows, 480 columns, 960 nonzeros
Variable types: 240 continuous, 240 integer (240 binary)

Root relaxation: objective 2.769838e+03, 51 iterations, 0.00 seconds (0.00 work units)

    Nodes    |    Current Node    |     Objective Bounds      |     Work
 Expl Unexpl |  Obj  Depth IntInf | Incumbent    BestBd   Gap | It/Node Time

     0     0 2769.83800    0   14 20319.0000 2769.83800  86.4%     -    0s
H    0     0                    11359.000000 2769.83800  75.6%     -    0s
H    0     0                    11195.000000 2769.83800  75.3%     -    0s
H    0     0                    11088.000000 2769.83800  75.0%     -    0s
H    0     0                    11074.000000 8116.87580  26.7%     -    0s
     0     0 8116.87580    0   26 11074.0000 8116.87580  26.7%     -    0s
H    0     0                    10916.000000 8161.01413  25.2%     -    0s
H    0     0                    10896.000000 8588.30479  21.2%     -    0s
     0     0 8588.30479    0   25 10896.0000 8588.30479  21.2%     -    0s
H    0     0                    10836.000000 8589.83893  20.7%     -    0s
H    0     0                    10806.000000 8613.92228  20.3%     -    0s
     0     0 8613.92228    0   22 10806.0000 8613.92228  20.3%     -    0s
     0     0 8718.84268    0   23 10806.0000 8718.84268  19.3%     -    0s
H    0     0                    10792.000000 8722.38805  19.2%     -    0s
H    0     0                    10748.000000 8722.38805  18.8%     -    0s
     0     0 8841.21632    0   38 10748.0000 8841.21632  17.7%     -    0s
     0     0 8841.47582    0   38 10748.0000 8841.47582  17.7%     -    0s
     0     0 8965.95906    0   47 10748.0000 8965.95906  16.6%     -    0s
     0     0 8998.12995    0   41 10748.0000 8998.12995  16.3%     -    0s
     0     0 9000.83972    0   43 10748.0000 9000.83972  16.3%     -    0s
     0     0 9076.65398    0   27 10748.0000 9076.65398  15.6%     -    0s
     0     0 9078.63462    0   31 10748.0000 9078.63462  15.5%     -    0s
     0     0 9125.77202    0   32 10748.0000 9125.77202  15.1%     -    0s
     0     0 9128.71151    0   32 10748.0000 9128.71151  15.1%     -    0s
     0     2 9130.19396    0   32 10748.0000 9130.19396  15.1%     -    0s
H   32    64                    10681.000000 9196.58114  13.9%  45.8    0s
H  633   595                    10674.000000 9285.90564  13.0%  20.3    0s
 35506 11489 10354.3723   33   24 10674.0000 10092.7613  5.45%  27.3    5s
 83180 14400     cutoff   41      10674.0000 10307.5868  3.43%  27.9   10s

Cutting planes:
  Gomory: 1
  Lift-and-project: 11
  Cover: 89
  Implied bound: 37
  Dual implied bound: 19
  MIR: 192
  Mixing: 1
  Flow cover: 285
  Flow path: 35
  Inf proof: 1
  Zero half: 10
  Network: 47
  Relax-and-lift: 3

Explored 129776 nodes (3361176 simplex iterations) in 14.78 seconds (18.75 work units)
Thread count was 16 (of 16 available processors)

Solution count 10: 10674 10681 10748 ... 11088

Optimal solution found (tolerance 1.00e-04)
Best objective 1.067400000000e+04, best bound 1.067400000000e+04, gap 0.0000%
